NAME: tsp20-26
TYPE: TSP
DIMENSION: 20
EDGE_WEIGHT_TYPE: EUC_2D
NODE_COORD_SECTION
0 11 41
1 33 96
2 54 18
3 70 52
4 9 9
5 21 63
6 98 56
7 23 14
8 91 38
9 9 24
10 73 80
11 29 83
12 63 1
13 6 75
14 56 50
15 90 29
16 16 57
17 69 25
18 80 31
19 4 81
EOF